(set-info :status unknown)
(declare-fun %Y () (_ BitVec 3))
(declare-fun %X () (_ BitVec 3))
(assert
 (let (($x7901 (and (distinct (bvurem ((_ zero_extend 13) %X) ((_ zero_extend 13) %Y)) ((_ zero_extend 13) (bvurem %X %Y))) true)))
 (and (and (distinct ((_ zero_extend 13) %Y) (_ bv0 16)) true) $x7901)))
(check-sat)
